$$$$$$$$$$$$$$$$$$$$$$$$$$$$$$$$$$$$$$$$$$$$$$$$$$$$$$$$$$$$$$$$$$$$$$$$$$$$$$
$ Date: 2022-03-31 12:32
$ Components: CR, HF, MO, NB, TA, TI, V, VA, W, ZR
$ Phases: BCC_A2, FCC_A1, HCP_A3, LAVES_C14, LAVES_C15, LAVES_C36, LIQUID
$ Generated by shuanglin (pycalphad 0.9.2)
$$$$$$$$$$$$$$$$$$$$$$$$$$$$$$$$$$$$$$$$$$$$$$$$$$$$$$$$$$$$$$$$$$$$$$$$$$$$$$

ELEMENT CR BCC_A2 51.996 4050.0 23.56 !
ELEMENT HF HCP_A3 178.49 0.0 0.0 !
ELEMENT MO BCC_A2 95.94 4589.0 28.56 !
ELEMENT NB BCC_A2 92.906 5220.0 36.27 !
ELEMENT TA BCC_A2 180.95 5681.9 41.472 !
ELEMENT TI HCP_A3 47.88 4810.0 30.648 !
ELEMENT V BCC_A2 50.941 4507.0 30.89 !
ELEMENT VA VACUUM 0.0 0.0 0.0 !
ELEMENT W BCC_A2 183.85 4970.0 32.62 !
ELEMENT ZR HCP_A3 91.224 5566.3 39.181 !


FUNCTION GBCCCR 298.15 GHSERCR#; 6000.0 N !
FUNCTION GBCCHF 298.15 -1.446E-10*T**4 + 8.71923E-7*T**3 - 0.004206605*T**2 -
   22.8995*T*LN(T) + 103.836026*T + 5370.703 - 22590*T**(-1); 2506.0 Y
   1.3427829E-5*T**3 - 0.286857065*T**2 + 1087.61412*T*LN(T) - 8624.20573*T +
   1912456.77 - 610085091.0*T**(-1); 6000.0 N !
FUNCTION GBCCMO 298.15 GHSERMO#; 5000.0 N !
FUNCTION GBCCNB 298.15 GHSERNB#; 6000.0 N !
FUNCTION GBCCTA 298.15 GHSERTA#; 6000.0 N !
FUNCTION GBCCTI 298.15 -2.78803E-7*T**3 - 0.000663845*T**2 - 25.5768*T*LN(T)
   + 134.71418*T - 1272.064 + 7208*T**(-1); 1155.0 Y -8.4534E-7*T**3 +
   0.00121707*T**2 - 22.3771*T*LN(T) + 105.366379*T + 6667.385 -
   2002750*T**(-1); 1941.0 Y 1.228863E-6*T**3 - 0.02200832*T**2 +
   19.0900905*T*LN(T) - 182.426471*T + 26483.26 + 1400501*T**(-1); 6000.0 N !
FUNCTION GBCCV 298.15 GHSERVV#; 6000.0 N !
FUNCTION GBCCW 298.15 GHSERWW#; 6000.0 N !
FUNCTION GBCCZR 130.0 -7.6143E-11*T**4 - 9.729E-9*T**3 - 0.000340084*T**2 -
   25.607406*T*LN(T) + 124.9457*T - 525.539 + 25233*T**(-1); 2128.0 Y
   1.55998*T + GHSERZR# - 4620.034 + 1.4103476E+32*T**(-9); 6000.0 N !
FUNCTION GFCCCR 298.15 0.163*T + GHSERCR# + 7284; 6000.0 N !
FUNCTION GFCCHF 298.15 -2.2*T + GHSERHF# + 10000; 6000.0 N !
FUNCTION GFCCMO 298.15 0.63*T + GHSERMO# + 15200; 5000.0 N !
FUNCTION GFCCNB 298.15 1.7*T + GHSERNB# + 13500; 6000.0 N !
FUNCTION GFCCTA 298.15 1.7*T + GHSERTA# + 16000; 6000.0 N !
FUNCTION GFCCTI 298.15 -0.1*T + GHSERTI# + 6000; 6000.0 N !
FUNCTION GFCCV 298.15 1.7*T + GHSERVV# + 7500; 6000.0 N !
FUNCTION GFCCW 298.15 0.63*T + GHSERWW# + 19300; 6000.0 N !
FUNCTION GFCCZR 130.0 -0.9*T + GHSERZR# + 7600; 6000.0 N !
FUNCTION GHCPCR 298.15 GHSERCR# + 4438; 6000.0 N !
FUNCTION GHCPHF 298.15 GHSERHF#; 6000.0 N !
FUNCTION GHCPMO 298.15 GHSERMO# + 11550; 5000.0 N !
FUNCTION GHCPNB 298.15 2.4*T + GHSERNB# + 10000; 6000.0 N !
FUNCTION GHCPTA 298.15 2.4*T + GHSERTA# + 12000; 6000.0 N !
FUNCTION GHCPTI 298.15 GHSERTI#; 4000.0 N !
FUNCTION GHCPV 298.15 2.4*T + GHSERVV# + 4000; 6000.0 N !
FUNCTION GHCPW 298.15 GHSERWW# + 14750; 6000.0 N !
FUNCTION GHCPZR 130.0 GHSERZR#; 6000.0 N !
FUNCTION GHSERCR 298.15 -1.47721E-6*T**3 + 0.00189435*T**2 - 26.908*T*LN(T) +
   157.48*T - 8856.94 + 139250*T**(-1); 2180.0 Y -50*T*LN(T) + 344.18*T -
   34869.344 - 2.88526E+32*T**(-9); 6000.0 N !
FUNCTION GHSERHF 298.15 -4.77E-10*T**3 - 0.004146145*T**2 - 22.7075*T*LN(T) +
   110.744026*T - 6987.297 - 22590*T**(-1); 2506.0 Y -7.575759E-6*T**3 +
   0.1735215*T**2 - 787.536383*T*LN(T) + 6193.60999*T - 1446776.33 +
   501742495.0*T**(-1); 6000.0 N !
FUNCTION GHSERMO 298.15 -1.30927E-10*T**4 + 5.66283E-7*T**3 -
   0.003443396*T**2 - 23.56414*T*LN(T) + 131.9197*T - 7746.302 +
   65812*T**(-1); 2896.0 Y -42.63829*T*LN(T) + 283.559746*T - 30556.41 -
   4.849315E+33*T**(-9); 5000.0 N !
FUNCTION GHSERNB 298.15 -3.5012E-7*T**3 + 0.000203475*T**2 - 26.4711*T*LN(T)
   + 142.045475*T - 8519.353 + 93399*T**(-1); 2750.0 Y -41.77*T*LN(T) +
   271.720843*T - 37669.3 + 1.528238E+32*T**(-9); 6000.0 N !
FUNCTION GHSERTA 298.15 1.70109E-7*T**3 - 0.002623033*T**2 -
   23.7592624*T*LN(T) + 119.139857*T - 7285.889 - 3293*T**(-1); 1300.0 Y
   -6.55136E-7*T**3 + 0.006167572*T**2 - 41.137088*T*LN(T) + 243.88676*T -
   22389.955 + 2429586*T**(-1); 2500.0 Y 1.95033E-7*T**3 - 0.017983376*T**2 +
   78.5244752*T*LN(T) - 722.59722*T + 229382.886 - 93813648*T**(-1); 3290.0 Y
   -1.055148E-6*T**3 + 0.043117795*T**2 - 362.159132*T*LN(T) + 2985.49125*T -
   1042384.01 + 554714342.0*T**(-1); 6000.0 N !
FUNCTION GHSERTI 298.15 1.06716E-7*T**3 - 0.004777975*T**2 - 23.9933*T*LN(T)
   + 133.615208*T - 8059.921 + 72636*T**(-1); 900.0 Y -9.0876E-8*T**3 -
   0.0042033*T**2 - 23.9887*T*LN(T) + 132.988068*T - 7811.815 +
   42680*T**(-1); 1155.0 Y 2.02715E-7*T**3 - 0.0081465*T**2 - 14.9466*T*LN(T)
   + 66.976538*T + 908.837 - 1477660*T**(-1); 1941.0 Y -3.04747E-7*T**3 +
   0.008204849*T**2 - 87.2182461*T*LN(T) + 638.806871*T - 124526.786 +
   36699805*T**(-1); 6000.0 N !
FUNCTION GHSERVA 1 0; 10000 N !
FUNCTION GHSERVV 298.15 1.2175E-7*T**3 - 0.003098*T**2 - 24.134*T*LN(T) +
   133.346053*T - 7930.43 + 69460*T**(-1); 790.0 Y -6.8E-7*T**3 +
   6.25E-5*T**2 - 25.9*T*LN(T) + 143.291093*T - 7967.842; 2183.0 Y
   -47.43*T*LN(T) + 321.140783*T - 41689.864 + 6.44389E+31*T**(-9); 6000.0 N !
FUNCTION GHSERWW 298.15 -5.33E-11*T**4 + 2.07E-7*T**3 - 0.001936*T**2 -
   24.1*T*LN(T) + 130.4*T - 7646.311 + 44500*T**(-1); 3695.0 Y -54*T*LN(T) +
   389.362335*T - 82868.801 + 1.528621E+33*T**(-9); 6000.0 N !
FUNCTION GHSERZR 130.0 -0.00437791*T**2 - 24.1618*T*LN(T) + 125.64905*T -
   7827.595 + 34971*T**(-1); 2128.0 Y -42.144*T*LN(T) + 262.724183*T -
   26085.921 - 1.342896E+31*T**(-9); 6000.0 N !
FUNCTION GLIQCR 298.15 2.37615E-21*T**7 - 11.420225*T + GHSERCR# + 24339.955;
   2180.0 Y -50*T*LN(T) + 335.616316*T - 16459.984; 6000.0 N !
FUNCTION GLIQHF 298.15 -10.953093*T + GHSERHF# + 27402.256; 1000.0 Y
   1.376466E-6*T**3 - 0.021262021*T**2 + 12.116812*T*LN(T) - 149.91739*T +
   49731.499 - 4449699*T**(-1); 2506.0 Y -44*T*LN(T) + 265.470523*T -
   4247.217; 6000.0 N !
FUNCTION GLIQMO 298.15 4.24519E-22*T**7 - 14.694912*T + GHSERMO# + 41831.347;
   2896.0 Y -42.63829*T*LN(T) + 271.6697*T + 3538.963; 5000.0 N !
FUNCTION GLIQNB 298.15 -3.06098E-23*T**7 - 10.816418*T + GHSERNB# +
   29781.555; 2750.0 Y -41.77*T*LN(T) + 260.756148*T - 7499.398; 6000.0 N !
FUNCTION GLIQTA 298.15 -7.578729*T + GHSERTA# + 29160.975; 1000.0 Y
   6.14599E-7*T**3 - 0.012330066*T**2 + 0.0279523*T*LN(T) - 61.981795*T +
   43884.339 - 3523338*T**(-1); 3290.0 Y -41.84*T*LN(T) + 258.110873*T -
   6314.543; 6000.0 N !
FUNCTION GLIQTI 298.15 -6.980938*T + GHSERTI# + 12194.415; 900.0 Y
   -6.980938*T + GHSERTI# + 12194.416; 1300.0 Y 1.2457117E-5*T**3 -
   0.163409355*T**2 + 342.059267*T*LN(T) - 2554.0225*T + 369519.198 -
   67034516*T**(-1); 1941.0 Y -46.29*T*LN(T) + 298.7367*T - 19887.066; 6000.0
   N !
FUNCTION GLIQV 298.15 -5.19136E-22*T**7 - 9.455552*T + GHSERVV# + 20764.117;
   2183.0 Y -47.43*T*LN(T) + 311.055983*T - 19617.51; 6000.0 N !
FUNCTION GLIQW 298.15 -2.713468E-24*T**7 - 14.10999*T + GHSERWW# + 52160.584;
   3695.0 Y -54*T*LN(T) + 375.175*T - 30436.051; 6000.0 N !
FUNCTION GLIQZR 130.0 1.6275E-22*T**7 - 9.080812*T + GHSERZR# + 18147.69;
   2128.0 Y -42.144*T*LN(T) + 253.812609*T - 8281.26; 6000.0 N !

TYPE_DEFINITION % SEQ * !
DEFINE_SYSTEM_DEFAULT ELEMENT 2 !
DEFAULT_COMMAND DEFINE_SYSTEM_ELEMENT VA !

TYPE_DEFINITION & GES A_P_D BCC_A2 MAGNETIC  -1.0    3.70000E-01 !
PHASE BCC_A2 %&  2 1 3 !
CONSTITUENT BCC_A2 :CR,HF,MO,NB,TA,TI,V,W,ZR:VA: !

PHASE FCC_A1 %  2 1 1 !
CONSTITUENT FCC_A1 :CR,HF,MO,NB,TA,TI,V,W,ZR:VA: !

PHASE HCP_A3 %  2 1 0.5 !
CONSTITUENT HCP_A3 :CR,HF,MO,NB,TA,TI,V,W,ZR:VA: !

PHASE LAVES_C14 %  2 2 1 !
CONSTITUENT LAVES_C14 :CR,HF,MO,NB,TA,TI,V,W,ZR:CR,HF,MO,NB,TA,TI,V,W,ZR: !

PHASE LAVES_C15 %  2 2 1 !
CONSTITUENT LAVES_C15 :CR,HF,MO,NB,TA,TI,V,W,ZR:CR,HF,MO,NB,TA,TI,V,W,ZR: !

PHASE LAVES_C36 %  2 2 1 !
CONSTITUENT LAVES_C36 :CR,HF,MO,NB,TA,TI,V,W,ZR:CR,HF,MO,NB,TA,TI,V,W,ZR: !

PHASE LIQUID %  1 1 !
CONSTITUENT LIQUID :CR,HF,MO,NB,TA,TI,V,W,ZR: !



$$$$$$$$$$$$$$$$$$$$$$$$$$$$$$$$$$$$$$$$$$$$$$$$$$$$$$$$$$$$$$$$$$$$$$$$$$$$$$
$                                     CR                                     $
$$$$$$$$$$$$$$$$$$$$$$$$$$$$$$$$$$$$$$$$$$$$$$$$$$$$$$$$$$$$$$$$$$$$$$$$$$$$$$
 PARAMETER G(LIQUID,CR;0)    298.15 +GLIQCR;   6000 N !
 PARAMETER G(BCC_A2,CR:VA;0)      298.15 +GHSERCR; 6000 N REF:1 !
 PARAMETER TC(BCC_A2,CR:VA;0)     298.15 -311.5; 6000 N REF:1 !
 PARAMETER BMAGN(BCC_A2,CR:VA;0)  298.15 -0.008; 6000 N REF:1 !
 PARAMETER G(HCP_A3,CR:VA;0)   298.15   4438+GHSERCR; 6000 N !
 PARAMETER TC(HCP_A3,CR:VA;0)   298.15   -1109 ; 6000 N ! 
 PARAMETER BMAGN(HCP_A3,CR:VA;0)   298.15   -2.46 ; 6000 N !
 PARAMETER G(LAVES_C36,CR:CR;0)   298.15   15000+3*GHSERCR; 6000 N !
 PARAMETER G(LAVES_C14,CR:CR;0)   298.15   15000+3*GHSERCR; 6000 N !
 PARAMETER G(LAVES_C15,CR:CR;0)   298.15  +15000.0+3*GHSERCR;    6000 N !
$$$$$$$$$$$$$$$$$$$$$$$$$$$$$$$$$$$$$$$$$$$$$$$$$$$$$$$$$$$$$$$$$$$$$$$$$$$$$$
$                                     HF                                     $
$$$$$$$$$$$$$$$$$$$$$$$$$$$$$$$$$$$$$$$$$$$$$$$$$$$$$$$$$$$$$$$$$$$$$$$$$$$$$$
 
 PARAMETER G(LIQUID,HF;0) 298.15 +GLIQHF;6000 N REF:1 !
 PARAMETER G(BCC_A2,HF:VA;0) 298.15 +GBCCHF;6000 N REF:1 !
 PARAMETER G(HCP_A3,HF:VA;0) 298.15 +GHSERHF;6000 N REF:1 !
 PARAMETER G(FCC_A1,HF:VA;0) 298.15 +GFCCHF;6000 N REF:1 !
 PARAMETER G(LAVES_C15,HF:HF;0) 298.15 +15000+3*GHSERHF; 6000 N REF:17 !
 PARAMETER G(LAVES_C36,HF:HF;0)  298.15  +15000+3*GHSERHF;  6000 N REF:17 !
 
$$$$$$$$$$$$$$$$$$$$$$$$$$$$$$$$$$$$$$$$$$$$$$$$$$$$$$$$$$$$$$$$$$$$$$$$$$$$$$
$                                     MO                                     $
$$$$$$$$$$$$$$$$$$$$$$$$$$$$$$$$$$$$$$$$$$$$$$$$$$$$$$$$$$$$$$$$$$$$$$$$$$$$$$

 PARAMETER G(LIQUID,MO;0)   298.15 +GLIQMO;6000 N REF:1 !
 PARAMETER G(BCC_A2,MO:VA;0)    298.15 +GHSERMO;6000 N REF:1 ! 
 PARAMETER G(HCP_A3,MO:VA;0) 298.15 +GHCPMO; 6000.00 N REF:1 !
 PARAMETER G(FCC_A1,MO:VA;0)  298.15 +GFCCMO; 6000.00 N REF:1 !
 PARAMETER G(LAVES_C15,MO:MO;0)  298.15 +3*GHSERMO+15000; 6000 N REF:7 !
 PARAMETER G(LAVES_C36,MO:MO;0)  298.15  +15000+3*GHSERMO; 6000 N REF:17 !

$$$$$$$$$$$$$$$$$$$$$$$$$$$$$$$$$$$$$$$$$$$$$$$$$$$$$$$$$$$$$$$$$$$$$$$$$$$$$$
$                                     NB                                     $
$$$$$$$$$$$$$$$$$$$$$$$$$$$$$$$$$$$$$$$$$$$$$$$$$$$$$$$$$$$$$$$$$$$$$$$$$$$$$$

 PARAMETER G(LIQUID,NB;0)   298.15 +GLIQNB;6000 N REF:1 !
 PARAMETER G(BCC_A2,NB:VA;0)   298.15 +GHSERNB;6000 N REF:1 !
 PARAMETER G(HCP_A3,NB:VA;0) 298.15 +GHCPNB; 6000.00 N REF:1 !
 PARAMETER G(FCC_A1,NB:VA;0) 298.15 +GFCCNB; 6000.00 N REF:1 !

$$$$$$$$$$$$$$$$$$$$$$$$$$$$$$$$$$$$$$$$$$$$$$$$$$$$$$$$$$$$$$$$$$$$$$$$$$$$$$
$                                     TA                                     $
$$$$$$$$$$$$$$$$$$$$$$$$$$$$$$$$$$$$$$$$$$$$$$$$$$$$$$$$$$$$$$$$$$$$$$$$$$$$$$
 PARAMETER G(LIQUID,TA;0)   298.15 +GLIQTA; 6000.00 N REF:1 !
 PARAMETER G(BCC_A2,TA:VA;0)  298.15 +GHSERTA; 6000.00 N REF:1 !
 PARAMETER G(HCP_A3,TA:VA;0) 298.15 +GHCPTA; 6000.00 N REF:1 !
 PARAMETER G(FCC_A1,TA:VA;0)  298.15 +GFCCTA; 6000.00 N REF:1 !
 PARAMETER G(LAVES_C15,TA:TA;0) 298.15 +15000+3*GHSERTA; 6000 N REF:23 !
 PARAMETER G(LAVES_C14,TA:TA;0) 298.15 +15000+3*GHSERTA; 6000 N REF:23 !

$$$$$$$$$$$$$$$$$$$$$$$$$$$$$$$$$$$$$$$$$$$$$$$$$$$$$$$$$$$$$$$$$$$$$$$$$$$$$$
$                                     TI                                     $
$$$$$$$$$$$$$$$$$$$$$$$$$$$$$$$$$$$$$$$$$$$$$$$$$$$$$$$$$$$$$$$$$$$$$$$$$$$$$$

 PARAMETER G(LIQUID,TI;0) 298.15 +GLIQTI; 6000.00 N REF:1 !
 PARAMETER G(BCC_A2,TI:VA;0) 298.15 +GBCCTI; 6000.0 N REF:1 !
 PARAMETER G(HCP_A3,TI:VA;0) 298.15 +GHSERTI; 4000.00 N REF:1 !
 PARAMETER G(FCC_A1,TI:VA;0)  298.15 +GFCCTI; 4000.00 N REF:1 !


$$$$$$$$$$$$$$$$$$$$$$$$$$$$$$$$$$$$$$$$$$$$$$$$$$$$$$$$$$$$$$$$$$$$$$$$$$$$$$
$                                     V                                      $
$$$$$$$$$$$$$$$$$$$$$$$$$$$$$$$$$$$$$$$$$$$$$$$$$$$$$$$$$$$$$$$$$$$$$$$$$$$$$$

 PARAMETER G(LIQUID,V;0) 298.15 +GLIQV;  6000.00 N REF:1 !
 PARAMETER G(BCC_A2,V:VA;0) 298.15 +GHSERVV;  6000.00 N REF:1 !
 PARAMETER G(HCP_A3,V:VA;0) 298.15 +GHCPV;  6000.00 N REF:1 !
 PARAMETER G(FCC_A1,V:VA;0) 298.15 +GFCCV;  6000.00 N REF:1 !
 PARAMETER G(LAVES_C15,V:V;0)  298.15 +3*GHSERVV+15000; 6000 N REF:2023 !
 PARAMETER G(LAVES_C14,V:V;0)  298.15  +15000+3*GHSERVV; 6000 N REF:23 !
 
$$$$$$$$$$$$$$$$$$$$$$$$$$$$$$$$$$$$$$$$$$$$$$$$$$$$$$$$$$$$$$$$$$$$$$$$$$$$$$
$                                     W                                      $
$$$$$$$$$$$$$$$$$$$$$$$$$$$$$$$$$$$$$$$$$$$$$$$$$$$$$$$$$$$$$$$$$$$$$$$$$$$$$$

 PARAMETER G(LIQUID,W;0)    298.15 +GLIQW; 6000 N REF:1 !
 PARAMETER G(BCC_A2,W:VA;0)    298.15 +GHSERWW; 6000 N REF:1 !
 PARAMETER G(HCP_A3,W:VA;0)    298.15 +GHCPW;  6000.00 N REF:1 !
 PARAMETER G(FCC_A1,W:VA;0)    298.15 +GFCCW;  6000.00 N REF:1 !
 
$$$$$$$$$$$$$$$$$$$$$$$$$$$$$$$$$$$$$$$$$$$$$$$$$$$$$$$$$$$$$$$$$$$$$$$$$$$$$$
$                                     ZR                                     $
$$$$$$$$$$$$$$$$$$$$$$$$$$$$$$$$$$$$$$$$$$$$$$$$$$$$$$$$$$$$$$$$$$$$$$$$$$$$$$

 PARAMETER G(LIQUID,ZR;0)   298.15 +GLIQZR; 6000.00 N REF:1 !
 PARAMETER G(BCC_A2,ZR:VA;0) 298.15 +GBCCZR; 6000.00 N REF:1 !
 PARAMETER G(HCP_A3,ZR:VA;0) 298.15 +GHSERZR; 6000.00 N REF:1 !
 PARAMETER G(FCC_A1,ZR:VA;0)    298.15 +GFCCZR;  6000.00 N REF:1 !

$$$$$$$$$$$$$$$$$$$$$$$$$$$$$$$$$$$$$$$$$$$$$$$$$$$$$$$$$$$$$$$$$$$$$$$$$$$$$$
$                                   CR-HF                                    $
$$$$$$$$$$$$$$$$$$$$$$$$$$$$$$$$$$$$$$$$$$$$$$$$$$$$$$$$$$$$$$$$$$$$$$$$$$$$$$

PARAMETER G(LAVES_C14,CR:HF;0) 1 2*GHSERCR# + GHSERHF#; 10000 N !
PARAMETER G(LAVES_C14,HF:CR;0) 1 GHSERCR# + 2*GHSERHF#; 10000 N !
PARAMETER G(LAVES_C15,CR:HF;0) 1 2*GHSERCR# + GHSERHF#; 10000 N !
PARAMETER G(LAVES_C15,HF:CR;0) 1 GHSERCR# + 2*GHSERHF#; 10000 N !
PARAMETER G(LAVES_C36,CR:HF;0) 1 2*GHSERCR# + GHSERHF#; 10000 N !
PARAMETER G(LAVES_C36,HF:CR;0) 1 GHSERCR# + 2*GHSERHF#; 10000 N !


$$$$$$$$$$$$$$$$$$$$$$$$$$$$$$$$$$$$$$$$$$$$$$$$$$$$$$$$$$$$$$$$$$$$$$$$$$$$$$
$                                   CR-MO                                    $
$$$$$$$$$$$$$$$$$$$$$$$$$$$$$$$$$$$$$$$$$$$$$$$$$$$$$$$$$$$$$$$$$$$$$$$$$$$$$$

 PARAMETER G(BCC_A2,CR,MO:VA;0)  298.15 +28890-7.962*T; 6000 N REF:30 !
 PARAMETER G(BCC_A2,CR,MO:VA;1)  298.15 +5974-2.428*T;  6000 N REF:30!
 PARAMETER G(LIQUID,CR,MO;0) 298.15 +15810-6.714*T; 6000 N REF:30!
 PARAMETER G(LIQUID,CR,MO;1) 298.15 -6220; 6000 N REF:30!

$$$$$$$$$$$$$$$$$$$$$$$$$$$$$$$$$$$$$$$$$$$$$$$$$$$$$$$$$$$$$$$$$$$$$$$$$$$$$$
$                                   CR-NB                                    $
$$$$$$$$$$$$$$$$$$$$$$$$$$$$$$$$$$$$$$$$$$$$$$$$$$$$$$$$$$$$$$$$$$$$$$$$$$$$$$
 FUNCTION ACRF    0.01 280.8869*T**(-1);                             6000 N !
 FUNCTION BCRF    0.01 EXP(ACRF)-1.0;                                6000 N !
 FUNCTION CCRF    0.01 LN(BCRF);                                     6000 N !
 FUNCTION GEINCRF 0.01 24.942*CCRF*T;                                6000 N !

 FUNCTION ACRS    0.01 457.8066*T**(-1);                             6000 N !
 FUNCTION BCRS    0.01 EXP(ACRS)-1.0;                                6000 N !
 FUNCTION CCRS    0.01 LN(BCRS);                                     6000 N !
 FUNCTION GEINCRS 0.01 24.942*CCRS*T;                                6000 N !

 FUNCTION GEINCR 0.01 0.4987*GEINCRF+0.5005*GEINCRS;                 6000 N ! 
 FUNCTION ANBF 298.15 88.73871*T**(-1);                             6000 N !
 FUNCTION BNBF 298.15 EXP(ANBF)-1.0;                                6000 N !
 FUNCTION CNBF 298.15 LN(BNBF);                                     6000 N !
 FUNCTION GEINNBF 298.15 24.942*CNBF*T;                             6000 N !

 FUNCTION ANBS 298.15 237.83365*T**(-1);                            6000 N !
 FUNCTION BNBS 298.15 EXP(ANBS)-1.0;                                6000 N !
 FUNCTION CNBS 298.15 LN(BNBS);                                     6000 N !
 FUNCTION GEINNBS 298.15 24.942*CNBS*T;                             6000 N !

 FUNCTION GEINNB 298.15 0.18616*GEINNBF+0.81405*GEINNBS;            6000 N !

 FUNCTION ACRNBF 298.15 182.84981*T**(-1);                           5000 N !
 FUNCTION BCRNBF 298.15 EXP(ACRNBF)-1.0;                             5000 N !
 FUNCTION CCRNBF 298.15 LN(BCRNBF);                                  5000 N !
 FUNCTION GEINCNF 298.15 24.942*CCRNBF*T;                            5000 N !

 FUNCTION ACRNBS 298.15 358.21129*T**(-1);                           5000 N !
 FUNCTION BCRNBS 298.15 EXP(ACRNBS)-1.;                              5000 N !
 FUNCTION CCRNBS 298.15 LN(BCRNBS);                                  5000 N !
 FUNCTION GEINCNS 298.15 24.942*CCRNBS*T;                            5000 N !

 FUNCTION GEINCNT 298.15 0.30267*GEINCNF+0.69891*GEINCNS;            5000 N !

 FUNCTION GHSERCNA 0.01 -12127.3338324889-0.001585*T**2+GEINCNT; 72 Y 
 -12128.7885399679+0.228914352048509*T-0.000743155394074902*T**2
 -1.94871436556736e-06*T**3-0.060612811626607*T*LN(T)+GEINCNT; 429.8 Y
 -11819.3478535089-11.7872621596179*T-0.0057685*T**2+2.0992803*T*LN(T)
 +GEINCNT;                                                          5000 N !

 PARAMETER G(BCC_A2,CR,NB:VA;0)   298.15 +63463.0-23.2713*T;      6000 N !
 PARAMETER G(BCC_A2,CR,NB:VA;1)   298.15 +37357.6-18.6226*T;      6000 N !
 PARAMETER G(LAVES_C15,CR:NB;0)   298.15 -8386.1-2.9757*T+3*GHSERCNA;6000 N !
 PARAMETER G(LAVES_C15,NB:NB;0)   298.15  +1000.0+3*GHSERNB;         6000 N !
 PARAMETER G(LAVES_C15,NB:CR;0)   298.15  
 +14386.1+2.9757*T+3*GHSERCR+3*GHSERN-3*GHSERCNA; 6000 N !
 PARAMETER L(LAVES_C15,CR,NB:CR;0) 298.15   +87535.7;                6000 N !
 PARAMETER L(LAVES_C15,CR,NB:NB;0) 298.15   +87535.7;                6000 N !
 PARAMETER L(LAVES_C15,CR:CR,NB;0) 298.15   +37488.5;                6000 N !
 PARAMETER L(LAVES_C15,NB:CR,NB;0) 298.15   +37488.5;                6000 N !
 PARAMETER G(LIQUID,CR,NB;0) 0.01 +50818.5-29.9256*T;                6000 N !
 PARAMETER G(LIQUID,CR,NB;1) 0.01 +10599.5-8.5778*T;                 6000 N !

$$$$$$$$$$$$$$$$$$$$$$$$$$$$$$$$$$$$$$$$$$$$$$$$$$$$$$$$$$$$$$$$$$$$$$$$$$$$$$
$                                   CR-TA                                    $
$$$$$$$$$$$$$$$$$$$$$$$$$$$$$$$$$$$$$$$$$$$$$$$$$$$$$$$$$$$$$$$$$$$$$$$$$$$$$$

PARAMETER G(LAVES_C14,CR:TA;0) 1 2*GHSERCR# + GHSERTA#; 10000 N !
PARAMETER G(LAVES_C14,TA:CR;0) 1 GHSERCR# + 2*GHSERTA#; 10000 N !
PARAMETER G(LAVES_C15,CR:TA;0) 1 2*GHSERCR# + GHSERTA#; 10000 N !
PARAMETER G(LAVES_C15,TA:CR;0) 1 GHSERCR# + 2*GHSERTA#; 10000 N !
PARAMETER G(LAVES_C36,CR:TA;0) 1 2*GHSERCR# + GHSERTA#; 10000 N !
PARAMETER G(LAVES_C36,TA:CR;0) 1 GHSERCR# + 2*GHSERTA#; 10000 N !


$$$$$$$$$$$$$$$$$$$$$$$$$$$$$$$$$$$$$$$$$$$$$$$$$$$$$$$$$$$$$$$$$$$$$$$$$$$$$$
$                                   CR-TI                                    $
$$$$$$$$$$$$$$$$$$$$$$$$$$$$$$$$$$$$$$$$$$$$$$$$$$$$$$$$$$$$$$$$$$$$$$$$$$$$$$

 PARAMETER G(LIQUID,CR,TI;0)   298.15   -365.81 ; 6000 N !
 PARAMETER G(LIQUID,CR,TI;1)   298.15   -3030.23 ; 6000 N !
 PARAMETER G(LIQUID,CR,TI;2)   298.15   +1549.08 ; 6000 N !
 PARAMETER G(BCC_A2,CR,TI:VA;0)   298.15   -2247.87+9.14144*T ; 6000 N !
 PARAMETER G(BCC_A2,CR,TI:VA;1)   298.15   198.73 ; 6000 N !
 PARAMETER G(HCP_A3,CR,TI:VA;0)   298.15   23900 ; 6000 N !
 PARAMETER G(LAVES_C14,CR:TI;0)   298.15  
   -26611.83+5.31422*T+2*GHSERCR+GHSERTI ; 6000 N !
 PARAMETER G(LAVES_C14,TI:CR;0)   298.15  
    56611.83-5.31422*T+GHSERCR+2*GHSERTI ; 6000 N !
 PARAMETER G(LAVES_C14,CR:CR,TI;0)   298.15   60000 ; 6000 N !
 PARAMETER G(LAVES_C14,TI:CR,TI;0)   298.15   60000 ; 6000 N !
 PARAMETER G(LAVES_C14,CR,TI:CR;0)   298.15   50000 ; 6000 N !
 PARAMETER G(LAVES_C14,CR,TI:TI;0)   298.15   50000 ; 6000 N !
 PARAMETER G(LAVES_C36,CR:TI;0)   298.15   
    -28472.77+6.51846*T+2*GHSERCR+GHSERTI ; 6000 N !
 PARAMETER G(LAVES_C36,TI:CR;0)   298.15  
     58472.77-6.51846*T+GHSERCR+2*GHSERTI ; 6000 N !
 PARAMETER G(LAVES_C36,CR:CR,TI;0)   298.15   60000 ; 6000 N !
 PARAMETER G(LAVES_C36,TI:CR,TI;0)   298.15   60000 ; 6000 N !
 PARAMETER G(LAVES_C36,CR,TI:CR;0)   298.15   50000 ; 6000 N !
 PARAMETER G(LAVES_C36,CR,TI:TI;0)   298.15   50000 ; 6000 N !

$$$$$$$$$$$$$$$$$$$$$$$$$$$$$$$$$$$$$$$$$$$$$$$$$$$$$$$$$$$$$$$$$$$$$$$$$$$$$$
$                                    CR-V                                    $
$$$$$$$$$$$$$$$$$$$$$$$$$$$$$$$$$$$$$$$$$$$$$$$$$$$$$$$$$$$$$$$$$$$$$$$$$$$$$$

 PARAMETER G(LIQUID,CR,V;0)   298.15   -20224.86 ; 6000 N !
 PARAMETER G(LIQUID,CR,V;1)   298.15   -13469.90 ; 6000 N !
 PARAMETER G(BCC_A2,CR,V:VA;0)   298.15   -8253.85-3.61592*T ; 6000 N !
 PARAMETER G(BCC_A2,CR,V:VA;1)   298.15   7494.82-8.69424*T ; 6000 N !
 PARAMETER G(BCC_A2,CR,V:VA;2)   298.15   -17599.07+10.13142*T ; 6000 N !
 PARAMETER G(BCC_A2,CR,V:VA;3)   298.15   1042.58 ; 6000 N !
 PARAMETER G(HCP_A3,CR,V:VA;0)   298.15   5000 ; 6000 N !
 PARAMETER G(LAVES_C36,CR:V;0)   298.15  
     4378+14*T+2*GHSERCR+GHSERVV ; 6000 N !
 PARAMETER G(LAVES_C36,V:CR;0)   298.15  
     25622-14*T+GHSERCR+2*GHSERVV ; 6000 N !
 PARAMETER G(LAVES_C36,CR,V:CR;0)   298.15   26406-22*T ; 6000 N !
 PARAMETER G(LAVES_C36,CR,V:V;0)   298.15   26406-22*T ; 6000 N !
 PARAMETER G(LAVES_C36,V:CR,V;0)   298.15   26406-22*T ; 6000 N !
 PARAMETER G(LAVES_C15,CR:CR;0)   298.15   15000+3*GHSERCR; 6000 N !
 PARAMETER G(LAVES_C15,CR:TI;0)   298.15   
                              -29567.59+7.55767*T+2*GHSERCR+GHSERTI ; 6000 N !
 PARAMETER G(LAVES_C15,TI:CR;0)   298.15   
                              59567.59-7.55767*T+GHSERCR+2*GHSERTI ; 6000 N !
 PARAMETER G(LAVES_C15,CR:V;0)   298.15  
                                 4378+14*T+2*GHSERCR+GHSERVV ; 6000 N ! 
 PARAMETER G(LAVES_C15,V:CR;0)   298.15   
                                 25622-14*T+GHSERCR+2*GHSERVV ; 6000 N !
 PARAMETER G(LAVES_C15,TI:V;0)   298.15  
                                 4378+14*T+2*GHSERTI+GHSERVV ; 6000 N ! 
 PARAMETER G(LAVES_C15,V:TI;0)   298.15   
                                    25622-14*T+GHSERTI+2*GHSERVV ; 6000 N ! 


 PARAMETER G(LAVES_C15,CR:CR,TI;0)   298.15   50000 ; 6000 N !
 PARAMETER G(LAVES_C15,TI:CR,TI;0)   298.15   50000 ; 6000 N !
 PARAMETER G(LAVES_C15,CR,TI:CR;0)   298.15  
                                 21340.62+13.54203*T ; 6000 N !
 PARAMETER G(LAVES_C15,CR,TI:TI;0)   298.15  
                                 21340.62+13.54203*T ; 6000 N !
 PARAMETER G(LAVES_C15,V:CR,TI;0)   298.15   22514-18*T ; 6000 N !
 PARAMETER G(LAVES_C15,CR,TI:V;0)   298.15   22514-18*T ; 6000 N !
$   
 PARAMETER G(LAVES_C15,CR,V:CR;0)   298.15   26406-22*T ; 6000 N !
 PARAMETER G(LAVES_C15,CR,V:TI;0)   298.15   26406-22*T ; 6000 N !
 PARAMETER G(LAVES_C15,CR,V:V;0)   298.15   26406-22*T ; 6000 N !
$   
 PARAMETER G(LAVES_C15,CR:CR,V;0)   298.15   26406-22*T ; 6000 N !
 PARAMETER G(LAVES_C15,TI:CR,V;0)   298.15   26406-22*T ; 6000 N !
 PARAMETER G(LAVES_C15,V:CR,V;0)   298.15   26406-22*T ; 6000 N !
$   
 PARAMETER G(LAVES_C15,TI,V:CR;0)   298.15   5000 ; 6000 N !
 PARAMETER G(LAVES_C15,TI,V:TI;0)   298.15   5000 ; 6000 N !
 PARAMETER G(LAVES_C15,TI,V:V;0)   298.15   5000 ; 6000 N !
$   
 PARAMETER G(LAVES_C15,CR:TI,V;0)   298.15   5000 ; 6000 N !
 PARAMETER G(LAVES_C15,TI:TI,V;0)   298.15   5000 ; 6000 N !
 PARAMETER G(LAVES_C15,V:TI,V;0)   298.15   5000 ; 6000 N !

$$$$$$$$$$$$$$$$$$$$$$$$$$$$$$$$$$$$$$$$$$$$$$$$$$$$$$$$$$$$$$$$$$$$$$$$$$$$$$
$                                    CR-W                                    $
$$$$$$$$$$$$$$$$$$$$$$$$$$$$$$$$$$$$$$$$$$$$$$$$$$$$$$$$$$$$$$$$$$$$$$$$$$$$$$

 PARAMETER G(LIQUID,CR,W;0)        298.15  -16800+10*T;             6000 N !
 PARAMETER G(LIQUID,CR,W;1)        298.15  +9000;                   6000 N !
 PARAMETER G(BCC_A2,CR,W:VA;0)     298.15  +31520;                  6000 N !
 PARAMETER G(BCC_A2,CR,W:VA;1)     298.15  -1320;                   6000 N !


$$$$$$$$$$$$$$$$$$$$$$$$$$$$$$$$$$$$$$$$$$$$$$$$$$$$$$$$$$$$$$$$$$$$$$$$$$$$$$
$                                   CR-ZR                                    $
$$$$$$$$$$$$$$$$$$$$$$$$$$$$$$$$$$$$$$$$$$$$$$$$$$$$$$$$$$$$$$$$$$$$$$$$$$$$$$

PARAMETER G(LAVES_C14,CR:ZR;0) 1 2*GHSERCR# + GHSERZR#; 10000 N !
PARAMETER G(LAVES_C14,ZR:CR;0) 1 GHSERCR# + 2*GHSERZR#; 10000 N !
PARAMETER G(LAVES_C15,CR:ZR;0) 1 2*GHSERCR# + GHSERZR#; 10000 N !
PARAMETER G(LAVES_C15,ZR:CR;0) 1 GHSERCR# + 2*GHSERZR#; 10000 N !
PARAMETER G(LAVES_C36,CR:ZR;0) 1 2*GHSERCR# + GHSERZR#; 10000 N !
PARAMETER G(LAVES_C36,ZR:CR;0) 1 GHSERCR# + 2*GHSERZR#; 10000 N !


$$$$$$$$$$$$$$$$$$$$$$$$$$$$$$$$$$$$$$$$$$$$$$$$$$$$$$$$$$$$$$$$$$$$$$$$$$$$$$
$                                   HF-MO                                    $
$$$$$$$$$$$$$$$$$$$$$$$$$$$$$$$$$$$$$$$$$$$$$$$$$$$$$$$$$$$$$$$$$$$$$$$$$$$$$$

 PARAMETER G(LIQUID,HF,MO;0) 298.15  -23414-2.27*T;  6000 N REF:17 !
 PARAMETER G(LIQUID,HF,MO;1) 298.15  +46500-28*T;    6000 N REF:17 !
 PARAMETER G(LIQUID,HF,MO;2) 298.15  -0.5*T;         6000 N REF:17 !
 PARAMETER G(BCC_A2,HF,MO:VA;0)  298.15  -9140+2.36*T;   6000 N REF:17 !
 PARAMETER G(BCC_A2,HF,MO:VA;1)  298.15  +60500-29*T;    6000 N REF:17 !
 PARAMETER G(BCC_A2,HF,MO:VA;2)  298.15  -1500-4.5*T;    6000 N REF:17 !
 PARAMETER G(HCP_A3,HF,MO:VA;0)  298.15  -500;       6000 N REF:17 !
 PARAMETER G(HCP_A3,HF,MO:VA;1)  298.15  +27000;     6000 N REF:17 !
 PARAMETER G(HCP_A3,HF,MO:VA;2)  298.15  -6500;      6000 N REF:17 !
 PARAMETER G(LAVES_C15,HF:MO;0)  
298.15  +90000+30*T+2*GHSERHF+GHSERMO; 6000 N REF:17 !
 PARAMETER G(LAVES_C15,MO:HF;0)  
298.15  -32100-3.6*T+2*GHSERMO+GHSERHF; 6000 N REF:17 !
 PARAMETER G(LAVES_C15,HF:HF,MO;0)  298.15  +79509-6*T;    6000 N REF:17 !
 PARAMETER G(LAVES_C15,MO:HF,MO;0)  298.15  +79509-6*T;    6000 N REF:17 !
 PARAMETER G(LAVES_C15,HF,MO:HF;0)  298.15  +78000+30*T;    6000 N REF:17 !
 PARAMETER G(LAVES_C15,HF,MO:MO;0)  298.15  +78000+30*T;    6000 N REF:17 !
 PARAMETER G(LAVES_C36,MO:HF;0)  
298.15 -28883.5-5*T+2*GHSERMO+GHSERHF;6000 N REF:17 !
 PARAMETER G(LAVES_C36,HF:MO;0)  
298.15  +120060+2*GHSERHF+GHSERMO; 6000 N REF:17 !
 PARAMETER G(LAVES_C36,HF:HF,MO;0)  298.15  +77000-8*T;    6000 N REF:17 !
 PARAMETER G(LAVES_C36,MO:HF,MO;0)  298.15  +77000-8*T;    6000 N REF:17 !
 PARAMETER G(LAVES_C36,HF,MO:HF;0)  298.15  +75000-10*T;    6000 N REF:17 !
 PARAMETER G(LAVES_C36,HF,MO:MO;0)  298.15  +75000-10*T;    6000 N REF:17 !


$$$$$$$$$$$$$$$$$$$$$$$$$$$$$$$$$$$$$$$$$$$$$$$$$$$$$$$$$$$$$$$$$$$$$$$$$$$$$$
$                                   HF-NB                                    $
$$$$$$$$$$$$$$$$$$$$$$$$$$$$$$$$$$$$$$$$$$$$$$$$$$$$$$$$$$$$$$$$$$$$$$$$$$$$$$

 PARAMETER G(LIQUID,HF,NB;0) 298.15 20430.77; 6000 N REF:18 !
 PARAMETER G(LIQUID,HF,NB;1) 298.15 12945.54; 6000 N REF:18 !
 PARAMETER G(BCC_A2,HF,NB:VA;0) 298.15 -5835.23+16.32278*T; 6000 N REF:18 !
 PARAMETER G(BCC_A2,HF,NB:VA;1) 298.15 -3660.25+6.44118*T; 6000 N REF:18 !
 PARAMETER G(HCP_A3,HF,NB:VA;0) 298.15  16841.99+4.94863*T; 6000 N REF:18 !
 PARAMETER G(FCC_A1,HF,NB:VA;0) 298.15 3887.36+0.02358*T; 6000 N REF:18 !


$$$$$$$$$$$$$$$$$$$$$$$$$$$$$$$$$$$$$$$$$$$$$$$$$$$$$$$$$$$$$$$$$$$$$$$$$$$$$$
$                                   HF-TA                                    $
$$$$$$$$$$$$$$$$$$$$$$$$$$$$$$$$$$$$$$$$$$$$$$$$$$$$$$$$$$$$$$$$$$$$$$$$$$$$$$

 PARAMETER G(LIQUID,HF,TA;0) 298.15 +9844; 6000 N REF:11 !
 PARAMETER G(LIQUID,HF,TA;1) 298.15 -13254;6000 N REF:11 !
 PARAMETER G(BCC_A2,HF,TA:VA;0) 298.15 +22945.8;6000 N REF:11 !
 PARAMETER G(BCC_A2,HF,TA:VA;1) 298.15 -4295.3;6000 N REF:11 !
 PARAMETER G(BCC_A2,HF,TA:VA;2) 298.15 +947.8;6000 N REF:11 !
 PARAMETER G(HCP_A3,HF,TA:VA;0) 298.15 +22613.8;6000 N REF:11 !

$$$$$$$$$$$$$$$$$$$$$$$$$$$$$$$$$$$$$$$$$$$$$$$$$$$$$$$$$$$$$$$$$$$$$$$$$$$$$$
$                                   HF-TI                                    $
$$$$$$$$$$$$$$$$$$$$$$$$$$$$$$$$$$$$$$$$$$$$$$$$$$$$$$$$$$$$$$$$$$$$$$$$$$$$$$

PARAMETER G(LIQUID,HF,TI;0)   298.15 -4993.5-7.10316*T; 6000 N REF:19 !
PARAMETER G(BCC_A2,HF,TI:VA;0)   298.15  3003.24-7.4114*T; 6000 N REF:19 !
PARAMETER G(HCP_A3,HF,TI:VA;0)   298.15  13644-10.6383*T; 6000 N REF:19 !

$$$$$$$$$$$$$$$$$$$$$$$$$$$$$$$$$$$$$$$$$$$$$$$$$$$$$$$$$$$$$$$$$$$$$$$$$$$$$$
$                                    HF-V                                    $
$$$$$$$$$$$$$$$$$$$$$$$$$$$$$$$$$$$$$$$$$$$$$$$$$$$$$$$$$$$$$$$$$$$$$$$$$$$$$$

PARAMETER G(LIQUID,HF,V;0) 298.15 -17678.0992+11.0841*T; 6000 N REF:20 !
PARAMETER G(LIQUID,HF,V;1) 298.15 -10157.4250+0.1428*T; 6000 N REF:20 !
PARAMETER G(LIQUID,HF,V;2) 298.15 -2957.9038; 6000 N REF:20 !
PARAMETER G(BCC_A2,HF,V:VA;0)   298.15  13364.8240+9.5488*T; 6000 N REF:20 !
PARAMETER G(BCC_A2,HF,V:VA;1)   298.15  -5012.0000-5.8727*T; 6000 N REF:20 !
PARAMETER G(BCC_A2,HF,V:VA;2)   298.15  2311.9616; 6000 N REF:20 !
PARAMETER G(HCP_A3,HF,V:VA;0)   298.15  33570+0.1*T; 6000 N REF:20 !
PARAMETER G(LAVES_C15,V:HF;0) 
298.15 -10500+1.1097*T+GHSERHF+2*GHSERVV;6000 N REF:20 !
PARAMETER G(LAVES_C15,HF:V;0) 
298.15 10500-1.1097*T+GHSERVV+2*GHSERHF+30000;6000 N REF:20 !
PARAMETER G(LAVES_C15,HF,V:HF;0) 298.15 69405.9138; 6000 N REF:20 !
PARAMETER G(LAVES_C15,HF,V:V;0) 298.15 28120.2513; 6000 N REF:20 !

$$$$$$$$$$$$$$$$$$$$$$$$$$$$$$$$$$$$$$$$$$$$$$$$$$$$$$$$$$$$$$$$$$$$$$$$$$$$$$
$                                    HF-W                                    $
$$$$$$$$$$$$$$$$$$$$$$$$$$$$$$$$$$$$$$$$$$$$$$$$$$$$$$$$$$$$$$$$$$$$$$$$$$$$$$

PARAMETER G(LIQUID,HF,W;0)  298.15  -1.1128E+04;   6000 N   REF:16 !
PARAMETER G(LIQUID,HF,W;1)  298.15  -5.971E+03;   6000 N  REF:16 !
PARAMETER G(BCC_A2,HF,W:VA;0)  298.15  +3.8E+04-3.234*T; 6000 N REF:16 !
PARAMETER G(BCC_A2,HF,W:VA;1)  298.15  +2.5E+04-13.5573*T; 6000 N REF:16 !
PARAMETER G(HCP_A3,HF,W:VA;0)  298.15  +8.8E+04; 6000 N REF:16 !
PARAMETER G(LAVES_C15,HF:W;0)  298.15 
+GHSERWW#+2*GHSERHF#+2.13907E+05+76.537*T; 6000 N REF:16 !
PARAMETER G(LAVES_C15,W:HF;0)  298.15 
-4.99384E+04+3.23409E+02*T-6.4949E+01*T*LN(T)-8.55E-03*T**2
+1.09247E+04*T**(-1)+2.2437E-07*T**3; 6000 N REF:16 !

$$$$$$$$$$$$$$$$$$$$$$$$$$$$$$$$$$$$$$$$$$$$$$$$$$$$$$$$$$$$$$$$$$$$$$$$$$$$$$
$                                   HF-ZR                                    $